
Gurobi 9.1.1 (win64) logging started Tue Apr 12 11:19:10 2022

Changed value of parameter LogFile to ./Log/Pattern_Appro_solver_60_order_10_batch.log
   Prev:   Default: 
Gurobi Optimizer version 9.1.1 build v9.1.1rc0 (win64)
Thread count: 6 physical cores, 12 logical processors, using up to 12 threads
Optimize a model with 544 rows, 1020 columns and 2930 nonzeros
Model fingerprint: 0x499a5fa9
Variable types: 0 continuous, 1020 integer (980 binary)
Coefficient statistics:
  Matrix range     [1e+00, 6e+00]
  Objective range  [1e+00, 4e+01]
  Bounds range     [1e+00, 4e+00]
  RHS range        [1e+00, 6e+00]
Found heuristic solution: objective 1403.0000000
Presolve removed 217 rows and 291 columns
Presolve time: 0.00s
Presolved: 327 rows, 729 columns, 2192 nonzeros
Variable types: 0 continuous, 729 integer (700 binary)

Root relaxation: objective 6.098667e+02, 1004 iterations, 0.01 seconds

    Nodes    |    Current Node    |     Objective Bounds      |     Work
 Expl Unexpl |  Obj  Depth IntInf | Incumbent    BestBd   Gap | It/Node Time

     0     0  609.86667    0   55 1403.00000  609.86667  56.5%     -    0s
H    0     0                    1020.0000000  609.86667  40.2%     -    0s
H    0     0                    1004.0000000  609.86667  39.3%     -    0s
H    0     0                     973.0000000  609.86667  37.3%     -    0s
H    0     0                     959.0000000  609.86667  36.4%     -    0s
     0     0  638.13105    0  126  959.00000  638.13105  33.5%     -    0s
H    0     0                     943.0000000  638.13105  32.3%     -    0s
     0     0  638.47903    0  138  943.00000  638.47903  32.3%     -    0s
     0     0  638.57017    0  151  943.00000  638.57017  32.3%     -    0s
     0     0  638.58867    0  151  943.00000  638.58867  32.3%     -    0s
H    0     0                     937.0000000  638.58867  31.8%     -    0s
H    0     0                     928.0000000  638.58867  31.2%     -    0s
     0     0  680.00226    0  232  928.00000  680.00226  26.7%     -    0s
H    0     0                     918.0000000  680.00226  25.9%     -    0s
     0     0  680.00226    0  269  918.00000  680.00226  25.9%     -    0s
     0     0  680.24755    0  255  918.00000  680.24755  25.9%     -    0s
     0     0  680.49990    0  257  918.00000  680.49990  25.9%     -    0s
     0     0  680.56409    0  252  918.00000  680.56409  25.9%     -    0s
     0     0  680.57247    0  252  918.00000  680.57247  25.9%     -    0s
     0     0  691.34603    0  314  918.00000  691.34603  24.7%     -    0s
     0     0  692.52283    0  319  918.00000  692.52283  24.6%     -    0s
     0     0  693.08120    0  334  918.00000  693.08120  24.5%     -    0s
     0     0  693.16777    0  315  918.00000  693.16777  24.5%     -    0s
     0     0  693.17568    0  342  918.00000  693.17568  24.5%     -    0s
H    0     0                     910.0000000  693.17568  23.8%     -    0s
H    0     0                     902.0000000  693.17568  23.2%     -    0s
     0     0  698.92350    0  412  902.00000  698.92350  22.5%     -    0s
     0     0  701.17612    0  447  902.00000  701.17612  22.3%     -    0s
     0     0  701.87830    0  466  902.00000  701.87830  22.2%     -    0s
     0     0  702.19238    0  477  902.00000  702.19238  22.2%     -    0s
     0     0  702.37520    0  465  902.00000  702.37520  22.1%     -    0s
     0     0  702.44364    0  480  902.00000  702.44364  22.1%     -    0s
     0     0  706.06655    0  555  902.00000  706.06655  21.7%     -    0s
     0     0  707.70515    0  582  902.00000  707.70515  21.5%     -    0s
     0     0  708.18161    0  593  902.00000  708.18161  21.5%     -    0s
     0     0  708.64978    0  601  902.00000  708.64978  21.4%     -    0s
     0     0  708.75961    0  607  902.00000  708.75961  21.4%     -    0s
     0     0  710.45744    0  599  902.00000  710.45744  21.2%     -    0s
     0     0  711.10570    0  643  902.00000  711.10570  21.2%     -    0s
     0     0  711.57121    0  651  902.00000  711.57121  21.1%     -    0s
     0     0  711.76227    0  644  902.00000  711.76227  21.1%     -    0s
     0     0  711.82272    0  644  902.00000  711.82272  21.1%     -    0s
     0     0  717.85363    0  622  902.00000  717.85363  20.4%     -    0s
     0     0  719.41776    0  653  902.00000  719.41776  20.2%     -    0s
     0     0  719.65350    0  654  902.00000  719.65350  20.2%     -    0s
     0     0  719.68479    0  657  902.00000  719.68479  20.2%     -    0s
     0     0  720.37052    0  660  902.00000  720.37052  20.1%     -    0s
     0     0  720.54578    0  664  902.00000  720.54578  20.1%     -    0s
     0     0  721.37361    0  650  902.00000  721.37361  20.0%     -    1s
     0     0  721.37361    0  649  902.00000  721.37361  20.0%     -    1s
     0     2  721.37361    0  649  902.00000  721.37361  20.0%     -    1s
H   73    75                     900.0000000  724.70435  19.5%   289    1s
H  102   113                     897.0000000  724.70435  19.2%   259    1s
H  145   153                     896.0000000  724.70435  19.1%   218    1s
H  159   153                     893.0000000  724.70435  18.8%   206    1s
H  186   185                     890.0000000  724.70435  18.6%   194    2s
H  192   185                     886.0000000  724.70435  18.2%   189    2s
H  233   198                     874.0000000  724.70435  17.1%   174    2s
H  266   210                     868.0000000  725.61876  16.4%   178    2s
H  276   219                     860.0000000  725.61876  15.6%   178    2s
  1138   849  847.14130   29  126  860.00000  728.07344  15.3%   159    5s
  1796  1217  790.03754   32  432  860.00000  749.56721  12.8%   171   10s
H 3504  1773                     854.0000000  756.73003  11.4%   147   13s
H 4210  2164                     853.0000000  756.73003  11.3%   146   14s
H 4304  1881                     846.0000000  756.73003  10.6%   145   14s
  4481  2000  804.27114   21  527  846.00000  773.20704  8.60%   144   15s
  7127  3804  840.93197   45  238  846.00000  788.77748  6.76%   138   20s
  9892  5521  805.21237   33  455  846.00000  793.77983  6.17%   135   25s
 13094  7488  834.44657   37  294  846.00000  797.71852  5.71%   131   30s
 16463  9444  834.13819   50  390  846.00000  800.32564  5.40%   129   35s
 18335 10752  821.54439   40  346  846.00000  802.06378  5.19%   127   40s
 23009 13018  821.05203   32  483  846.00000  804.49268  4.91%   126   46s
 26085 14753  842.92651   41  317  846.00000  805.87647  4.74%   123   50s
 30751 17141  836.30812   33  343  846.00000  807.77930  4.52%   120   56s
 34633 18544  842.40468   39  331  846.00000  808.84843  4.39%   118   60s

Cutting planes:
  Gomory: 82
  Cover: 211
  Implied bound: 9
  Projected implied bound: 2
  Clique: 69
  MIR: 17
  StrongCG: 1
  Flow cover: 32
  Zero half: 24
  Mod-K: 12
  RLT: 14
  Relax-and-lift: 2

Explored 35245 nodes (4154262 simplex iterations) in 60.02 seconds
Thread count was 12 (of 12 available processors)

Solution count 10: 846 853 854 ... 896

Time limit reached
Best objective 8.460000000000e+02, best bound 8.090000000000e+02, gap 4.3735%
